c Generated map
c Size: 15 * 15, weights in range: 1 to 10, walls: True, with ratio 0.1
c dim 3 of 4
c
p sp 225 347
c graph contains 225 nodes and 347 arcs
c
a 1 16 2
a 16 1 2
a 1 2 7
a 2 1 7
a 2 17 5
a 17 2 5
a 2 3 7
a 3 2 7
a 3 18 2
a 18 3 2
a 3 4 3
a 4 3 3
a 4 19 10
a 19 4 10
a 4 5 6
a 5 4 6
a 5 20 3
a 20 5 3
a 5 6 3
a 6 5 3
a 6 21 9
a 21 6 9
a 6 7 8
a 7 6 8
a 7 22 9
a 22 7 9
a 7 8 6
a 8 7 6
a 8 23 5
a 23 8 5
a 8 9 4
a 9 8 4
a 9 24 5
a 24 9 5
a 9 10 9
a 10 9 9
a 10 25 6
a 25 10 6
a 10 11 10
a 11 10 10
a 11 26 6
a 26 11 6
a 11 12 6
a 12 11 6
a 12 27 8
a 27 12 8
a 12 13 4
a 13 12 4
a 13 28 5
a 28 13 5
a 15 30 6
a 30 15 6
a 16 31 7
a 31 16 7
a 16 17 7
a 17 16 7
a 17 32 3
a 32 17 3
a 17 18 8
a 18 17 8
a 18 33 7
a 33 18 7
a 18 19 10
a 19 18 10
a 19 34 8
a 34 19 8
a 19 20 8
a 20 19 8
a 20 35 4
a 35 20 4
a 20 21 6
a 21 20 6
a 21 36 2
a 36 21 2
a 21 22 2
a 22 21 2
a 22 37 6
a 37 22 6
a 22 23 7
a 23 22 7
a 23 38 10
a 38 23 10
a 23 24 8
a 24 23 8
a 24 25 5
a 25 24 5
a 25 40 6
a 40 25 6
a 25 26 9
a 26 25 9
a 26 41 4
a 41 26 4
a 26 27 8
a 27 26 8
a 27 42 9
a 42 27 9
a 27 28 9
a 28 27 9
a 28 43 9
a 43 28 9
a 28 29 10
a 29 28 10
a 29 44 6
a 44 29 6
a 29 30 3
a 30 29 3
a 30 45 4
a 45 30 4
a 31 46 3
a 46 31 3
a 31 32 7
a 32 31 7
a 32 47 10
a 47 32 10
a 32 33 6
a 33 32 6
a 33 48 8
a 48 33 8
a 33 34 8
a 34 33 8
a 34 49 7
a 49 34 7
a 34 35 3
a 35 34 3
a 35 50 3
a 50 35 3
a 35 36 10
a 36 35 10
a 36 37 1
a 37 36 1
a 37 52 2
a 52 37 2
a 37 38 4
a 38 37 4
a 38 53 2
a 53 38 2
a 40 55 9
a 55 40 9
a 40 41 8
a 41 40 8
a 41 56 10
a 56 41 10
a 41 42 10
a 42 41 10
a 42 57 8
a 57 42 8
a 42 43 4
a 43 42 4
a 43 58 2
a 58 43 2
a 43 44 2
a 44 43 2
a 44 59 2
a 59 44 2
a 44 45 3
a 45 44 3
a 45 60 10
a 60 45 10
a 46 61 2
a 61 46 2
a 46 47 10
a 47 46 10
a 47 48 3
a 48 47 3
a 48 49 10
a 49 48 10
a 49 64 3
a 64 49 3
a 49 50 4
a 50 49 4
a 50 65 5
a 65 50 5
a 52 67 4
a 67 52 4
a 52 53 1
a 53 52 1
a 53 68 1
a 68 53 1
a 53 54 10
a 54 53 10
a 54 69 9
a 69 54 9
a 54 55 2
a 55 54 2
a 55 70 7
a 70 55 7
a 55 56 6
a 56 55 6
a 56 71 2
a 71 56 2
a 56 57 7
a 57 56 7
a 57 72 5
a 72 57 5
a 57 58 4
a 58 57 4
a 58 73 7
a 73 58 7
a 58 59 6
a 59 58 6
a 59 74 10
a 74 59 10
a 59 60 4
a 60 59 4
a 60 75 4
a 75 60 4
a 61 76 4
a 76 61 4
a 64 79 10
a 79 64 10
a 64 65 10
a 65 64 10
a 65 80 6
a 80 65 6
a 65 66 8
a 66 65 8
a 66 81 6
a 81 66 6
a 66 67 7
a 67 66 7
a 67 82 10
a 82 67 10
a 67 68 8
a 68 67 8
a 68 83 3
a 83 68 3
a 68 69 9
a 69 68 9
a 69 84 4
a 84 69 4
a 69 70 4
a 70 69 4
a 70 71 1
a 71 70 1
a 71 86 5
a 86 71 5
a 71 72 5
a 72 71 5
a 72 87 5
a 87 72 5
a 72 73 7
a 73 72 7
a 73 88 10
a 88 73 10
a 73 74 1
a 74 73 1
a 74 89 1
a 89 74 1
a 74 75 2
a 75 74 2
a 75 90 5
a 90 75 5
a 76 91 1
a 91 76 1
a 76 77 10
a 77 76 10
a 77 92 4
a 92 77 4
a 77 78 6
a 78 77 6
a 78 93 8
a 93 78 8
a 78 79 4
a 79 78 4
a 79 94 9
a 94 79 9
a 79 80 8
a 80 79 8
a 80 81 6
a 81 80 6
a 81 96 3
a 96 81 3
a 81 82 1
a 82 81 1
a 82 97 1
a 97 82 1
a 82 83 8
a 83 82 8
a 83 98 2
a 98 83 2
a 83 84 3
a 84 83 3
a 84 99 8
a 99 84 8
a 86 101 2
a 101 86 2
a 86 87 6
a 87 86 6
a 87 102 1
a 102 87 1
a 87 88 8
a 88 87 8
a 88 89 9
a 89 88 9
a 89 104 9
a 104 89 9
a 89 90 7
a 90 89 7
a 90 105 1
a 105 90 1
a 91 106 8
a 106 91 8
a 91 92 2
a 92 91 2
a 92 107 3
a 107 92 3
a 92 93 6
a 93 92 6
a 93 108 8
a 108 93 8
a 93 94 7
a 94 93 7
a 94 109 3
a 109 94 3
a 96 111 3
a 111 96 3
a 96 97 2
a 97 96 2
a 97 112 8
a 112 97 8
a 97 98 10
a 98 97 10
a 98 113 9
a 113 98 9
a 98 99 10
a 99 98 10
a 99 114 3
a 114 99 3
a 99 100 5
a 100 99 5
a 100 115 1
a 115 100 1
a 100 101 5
a 101 100 5
a 101 116 1
a 116 101 1
a 101 102 1
a 102 101 1
a 102 117 10
a 117 102 10
a 104 119 6
a 119 104 6
a 104 105 9
a 105 104 9
a 105 120 1
a 120 105 1
a 106 121 2
a 121 106 2
a 106 107 5
a 107 106 5
a 107 122 8
a 122 107 8
a 107 108 6
a 108 107 6
a 108 123 2
a 123 108 2
a 108 109 4
a 109 108 4
a 109 124 3
a 124 109 3
a 109 110 6
a 110 109 6
a 110 125 1
a 125 110 1
a 110 111 4
a 111 110 4
a 111 126 10
a 126 111 10
a 111 112 10
a 112 111 10
a 112 127 1
a 127 112 1
a 112 113 7
a 113 112 7
a 113 128 7
a 128 113 7
a 113 114 3
a 114 113 3
a 114 129 8
a 129 114 8
a 114 115 9
a 115 114 9
a 115 130 7
a 130 115 7
a 115 116 7
a 116 115 7
a 116 131 5
a 131 116 5
a 116 117 9
a 117 116 9
a 117 132 6
a 132 117 6
a 117 118 4
a 118 117 4
a 118 119 8
a 119 118 8
a 119 120 3
a 120 119 3
a 120 135 8
a 135 120 8
a 121 136 10
a 136 121 10
a 121 122 4
a 122 121 4
a 122 137 1
a 137 122 1
a 122 123 8
a 123 122 8
a 123 124 3
a 124 123 3
a 124 139 8
a 139 124 8
a 124 125 10
a 125 124 10
a 125 140 10
a 140 125 10
a 125 126 10
a 126 125 10
a 126 141 6
a 141 126 6
a 126 127 8
a 127 126 8
a 127 142 5
a 142 127 5
a 127 128 5
a 128 127 5
a 128 143 4
a 143 128 4
a 128 129 9
a 129 128 9
a 129 144 4
a 144 129 4
a 129 130 1
a 130 129 1
a 130 145 6
a 145 130 6
a 130 131 8
a 131 130 8
a 131 146 2
a 146 131 2
a 131 132 2
a 132 131 2
a 132 147 10
a 147 132 10
a 135 150 1
a 150 135 1
a 136 137 4
a 137 136 4
a 137 152 2
a 152 137 2
a 139 154 2
a 154 139 2
a 139 140 1
a 140 139 1
a 140 155 3
a 155 140 3
a 140 141 9
a 141 140 9
a 141 156 7
a 156 141 7
a 141 142 3
a 142 141 3
a 142 157 3
a 157 142 3
a 142 143 2
a 143 142 2
a 143 158 2
a 158 143 2
a 143 144 2
a 144 143 2
a 144 159 10
a 159 144 10
a 144 145 6
a 145 144 6
a 145 160 3
a 160 145 3
a 145 146 9
a 146 145 9
a 146 161 6
a 161 146 6
a 146 147 5
a 147 146 5
a 147 162 4
a 162 147 4
a 147 148 10
a 148 147 10
a 148 163 4
a 163 148 4
a 148 149 6
a 149 148 6
a 149 164 3
a 164 149 3
a 149 150 8
a 150 149 8
a 152 167 9
a 167 152 9
a 152 153 3
a 153 152 3
a 153 154 3
a 154 153 3
a 154 155 6
a 155 154 6
a 155 170 6
a 170 155 6
a 155 156 5
a 156 155 5
a 156 171 9
a 171 156 9
a 156 157 10
a 157 156 10
a 157 172 10
a 172 157 10
a 157 158 5
a 158 157 5
a 158 173 7
a 173 158 7
a 158 159 4
a 159 158 4
a 159 174 9
a 174 159 9
a 159 160 9
a 160 159 9
a 160 175 6
a 175 160 6
a 160 161 2
a 161 160 2
a 161 176 9
a 176 161 9
a 161 162 8
a 162 161 8
a 162 177 4
a 177 162 4
a 162 163 3
a 163 162 3
a 163 178 3
a 178 163 3
a 163 164 6
a 164 163 6
a 164 179 6
a 179 164 6
a 167 182 6
a 182 167 6
a 170 185 3
a 185 170 3
a 170 171 10
a 171 170 10
a 171 186 6
a 186 171 6
a 171 172 7
a 172 171 7
a 172 187 4
a 187 172 4
a 172 173 3
a 173 172 3
a 173 188 5
a 188 173 5
a 173 174 9
a 174 173 9
a 174 189 5
a 189 174 5
a 174 175 7
a 175 174 7
a 175 190 2
a 190 175 2
a 175 176 10
a 176 175 10
a 176 191 4
a 191 176 4
a 176 177 9
a 177 176 9
a 177 192 8
a 192 177 8
a 177 178 3
a 178 177 3
a 178 193 7
a 193 178 7
a 178 179 6
a 179 178 6
a 179 194 10
a 194 179 10
a 181 196 1
a 196 181 1
a 181 182 4
a 182 181 4
a 182 197 2
a 197 182 2
a 182 183 10
a 183 182 10
a 183 198 5
a 198 183 5
a 183 184 1
a 184 183 1
a 184 199 6
a 199 184 6
a 184 185 6
a 185 184 6
a 185 200 4
a 200 185 4
a 185 186 9
a 186 185 9
a 186 201 8
a 201 186 8
a 186 187 5
a 187 186 5
a 187 202 3
a 202 187 3
a 187 188 6
a 188 187 6
a 188 203 7
a 203 188 7
a 188 189 3
a 189 188 3
a 189 204 6
a 204 189 6
a 189 190 2
a 190 189 2
a 190 205 6
a 205 190 6
a 190 191 5
a 191 190 5
a 191 206 2
a 206 191 2
a 191 192 6
a 192 191 6
a 192 207 1
a 207 192 1
a 192 193 2
a 193 192 2
a 193 208 5
a 208 193 5
a 193 194 9
a 194 193 9
a 194 195 10
a 195 194 10
a 196 211 4
a 211 196 4
a 196 197 4
a 197 196 4
a 197 212 3
a 212 197 3
a 197 198 2
a 198 197 2
a 198 213 6
a 213 198 6
a 198 199 8
a 199 198 8
a 199 200 10
a 200 199 10
a 200 215 3
a 215 200 3
a 200 201 9
a 201 200 9
a 201 202 8
a 202 201 8
a 202 217 3
a 217 202 3
a 202 203 3
a 203 202 3
a 203 218 2
a 218 203 2
a 203 204 2
a 204 203 2
a 204 205 4
a 205 204 4
a 205 220 8
a 220 205 8
a 205 206 7
a 206 205 7
a 206 221 4
a 221 206 4
a 206 207 7
a 207 206 7
a 207 222 3
a 222 207 3
a 207 208 10
a 208 207 10
a 208 223 8
a 223 208 8
a 211 212 5
a 212 211 5
a 212 213 5
a 213 212 5
a 217 218 4
a 218 217 4
a 220 221 3
a 221 220 3
a 221 222 7
a 222 221 7
a 222 223 4
a 223 222 4
a 223 224 3
a 224 223 3
a 224 225 1
a 225 224 1
